# tom06 leaf 471  printed page 467  window=2
# chocr-indexed Balearic entries on this leaf (1):
#   - CIUDADELA  (regex)

=== TARGET LEAF ===
GlU €1U 467

partido,su estadística municipal y loque se refiere al reemplazo del ejército,riqueza imponible.

REEMPLAZO DEL EJÉRCITO.

RIQUEZA IMPONIBLE.

JOVENES ALISTADOS DE EDAD DE

-—r4.

, g.sls

3 O

-—

sis

Torritorial

URBANA.

Industrial,

TOTAL.

Por

Por

18

19

20

21

22

23

24

TOTAL

1 ■a £

y pecuaria.

y comercial.

vecino

liabitanto.

años.

años

años

años

años.

años

ú £-3

47

289

286

304

226

Í42

98

1 fiQO

60

4.133,477

OI íflvu

217 06fi

4.667,666

»

»

9

10

10

5

11

5

4

O*

1*7

56.922

4 378

7,022

68,322

449

16

98 10

i

6

1

7

5

2

»

• 0'8

34.230

2 633

2 781

39,644

435

22

116 31

1

13

1

4

5

1

O

28

1'2

31,059

2',389

1,639

35,087

269

30

67 25

3

3

2

4

2

2

3

19

0*6

49,437

3,S03

1,021

54,261

875

6

218 26

l

1

1

1

1

1

6

0'2

24,719

1,901

304

26,924

1682

25

395 31

2

2

2

l

))

1

9

O'l

22,619

1,740

812

25,171

1258

18

449 16

3

2

2

2

i

11

0 5

251,829

19,371

845

272,045

6007

22

1429 18

»

»

»

»

n

O'l

»

»

406

406

31

8

8 4

11

9

11

5

10

12

6

64

2'4

104,908

8,069

7,041

120,018

499

30

125 12

2

1

1

2

»

2

8

0'2

18,007

1,385

501

19,893

485

6

205 3

2

14

3

6

8

6

0

45

í'5

181,871

13,913

3,234

199,018

1530

30

310 32

1

1

3

1

7

0'2

37,774

2,906

453

41,133

2570

27

520 22

3

2

6

2

2

2

2

19

0'8

58,760

4,520

502

03,782

839

8

194 15

2

5

3

7

8

3

1

29

0'7

54,573

4,197

601

59.361

625

". 2

212 3

5.692,731

810

■20

196 29

391

359

332

346

282

179

127

2016

71

5.060.1»5

388,331

244,228

ella se vé que el tolal de las que paga la prov. entera es el 13'55 por 100 de su riqueza imponible, en cuya proporción las decia que se incluye en ellas la de culto y clero por una suma de rs. vn. 150,288 que corresponden al 2'64 por 100 de la riqueza,

CIUDADELA: 1. en la prov. de la Coruña, ayunt. de Sobrado y felig. de Sta. Maria de Cindadela (Y.) poel.: 10 vec,41 almas.

CIUDADELA: part. jud. de entrada en la isla y dióc. deMenorca, prov., aud. terr. y c. g. de Baleares (Palma de MaHorca): compuesto de 6 pueblos que forman .¡ ayunt., cuyasdist. entre si de los principales, y de estos á la cab. del part.,cap. de la isla, c. g. y corte, se demuestran en el siguienteestado.

CIUDADELA.

21/4

Ferrerías.

3 3/4

11/4

Mercadal.

4

21/4

1

San Juan de

Carbonell.

7 1/4

5.

4

31/2

Mahon.

29

31 1/4

32 1/2

33

10

Palma.

145

147 1/4

148 3/4

149

123 2/3

• 155! Madrid.

Situación , clima y confines. Ocupa el estremo occidentalde la isla y no tiene mas lim. en lo interior que el part. de Mabon por el E.: por los demás punios le rodea el mar, su estension es de 10 millas, sobre 5 á 8 de ancho. Los vientos del N.,que son los mas frecuentes, le combaten con violencia; lascostas espuestas á su furor, se ven llenas de puntas y presentan un número prodigioso de cortaduras, que forman pequeñas bahias ; no sucede esto con las que son batidas por losvientos del Mediodía; estas son infinitamente mas iguales y entodo manifiestan señales de una posición roas dulce, templaday saludable; aquellos vientos son perjudiciales al acrecentamiento de los pinares sobre las montañas y secan los olivares;al contrario, estos árboles se presentan lozanos en los parajesdonde es tan al abrigo de aquel azote; su clima, sin embargo,

es sano y benigno. Creemos mas oportuno hacer la descripciónde la parte de costa que comprende este part. jud. al hacer lade toda la isla', evitando de este modo repeticiones viciosas, ysalimos del mejor y menos complicado método que nos hemospropuesto seguir; en este concepto pasamos á dar una ligeraidea de la calidad del terreno, para entrar luego en los cami-\ nos y prod.; bien que sin detenernos mucho, porque siendocasi iguales en toda la isla, tendremos ocasión de estendernosal tratar de esta en su descripción. La tierra vegetable es devarias especies; la de las montañas y colinas tira á negra; esligera, fina y muy fértil, y aunque esparcida por la superficie de los peñascos, produce, por poco que se cultive, cosechas bastante abundantes; la mezcla de arena que tiene facilitasu cultivo, y ahorra mucho trabajo y gasto: el terreno de lasllanuras es menos fértil, mas frió y gredoso, y tan impropiopara la agricultura como para los pastos; es cierto que los valles se han fertilizado con las tierras que las lluvias han arras ■trado de las montañas, pero estas se han empobrecido á proporción ; aquellas en que se ha tenido cuidado de detenerlascon paredes de piedra seca, son estremadamente fértiles hastaen las cumbres, y las que se han abandonado no lo son tanto.La piedra de cal es muy común en este part., de modo quecasi todas las paredes de los edificios están hechas de ella enteramente. En las petrificaciones de Cova Perella y en la piedradexorte, se observa frecuentemente que los canteros que lasacan, encuentran vetas tan duras como el pedernal, viéndose precisados á hacerla saltar con ¡a pólvora; las carnadas deesta piedra dura, rara vez tienen un pie de grueso; á la partede abajo se halla la piedra de corte, con la particularidad deque cuanto mas se ahonda, es mas dura y menos mezclada deconchas y de otros cuerpos estraños, que la mas cercana á lasuperficie: como esta piedra es porosa y la penetra fácilmente,el agua, los alhamíes tienen cuidado de dejarla espuesta alaire algún tiempo anles de emplearla, como también de revocarlas paredes para preservarla de la humedad. Hay canterasde pizarra, de mármoles y minas de hierro, que no se utilizantodo lo que se debiera, y piedras que llaman de Sapo.

=== CONTINUATION LEAF +1 ===
468

m i O * iO - o a*—' c» —— o

o2í » s

■O ü w 13 o

00 ^-s a

a ^3 a

9 J2 P . • 2

13 O tfj —*

* m « 10 « ■«

to ffl .5 G

«une

•'£ u 'S es«-"S

g .33 «5 * « ™ *'

t. a » S a °

O CL» ^ ^ CO ^

k . "£ s 'P .2

o .2, ca c og,¿ ílgü 00 s

^ S X « cS « 2»2S

CIU

2 § 3 * ÍTS £

r3 r (fl W y ^a ^

w «3 - * !—

O = CU « 3 O/ O

s^-^^s g

^ d) a) c a vh

-•xjQ | S o a

►a «' J3 'S O

O d tn o a

_ s s £

a —13 w

0 « * « ,r«

-i3 ce a

F. ©. * x

. ^ a s o « 2u £ S~ g Sh fs « 3" ■S'.g •^ — a -a p .3 P~ £ 2 c u.5 ¡Z o. 2. a _ - •.

i O) „ ü t» « -S»o a aj a

- - _. 3

5 «* ¡»

^ o

o

¿3 o

rT~ 3

(3^2 . 3,„ U 13 "oí ^ O u

2 « «c u acá

13

• £»c3

"2 Cu o

6B.2 o ~

o o _o j2 aen cu' w es ¿ú aa -3 „ ao o g a

2^ a ojB. = o= = a

ra -5 £

Ü3 es cu

S --a „_a „•

O a a 3/3 5 f a

o « 3 o"3 5■3 «i — o a a

tn O) tn u"3 G

« a 3 o « Si1

13 2 M ?¡ 3 J3r .tB ü .3 o " ~

r.2 £ o «3 5 -g 2'

ta

2 ¿

■ u s « a

03

b a

o o £ ~ " f» P

ga'S o =ü-§a - a.»a % »

-° r o *- ■

% «1^ ^

Ja j2 5 u _S a

C Sí O « ^ O

•S 75 2 " ryD O

«CS £ 1

se

« i_j -i3 o a; a o

« 3 S «« a. a j2

s.s,-l

S2¿.a

2 «s ¡a *a ta a

te11u

a 2

II« 2

S 3g'S

a'5?

CIU

1

S. (1)

1 -ezonhu c[

CO O Q«i C3 Oift --

-

2I0NE,

Pov liabitantc,

KS. M.

OI es(N

51 h -

■«— CS íM

CO

sa

o

uSS

r—I

0 .3c g

í «

O ro »

CO

CO

O CO 00

75 17

| CON'

O O

r^. r-* oco ro oO o *-oes ro *.o

i-

CP00

BLE. '

TOTAL.

¿

co ro »roo oo -r ooo coes taoo «

OI

•co ,co

MPON)

es

CO — vrrfN P3 O« CM

co es esiíO es

co

00

35

co

EZA I

1 -?| 5

O 00

es ooco oí —

co ro COro

50250

RIQU

f - 3

774710185830432G14

1393154

•cib

"JOD

IIDÜ'Stun r 'Jsdj

CN '-O

ei

CITO

1 =

•ivxox

CS O 00S^l ^" —t

o

o

) DEL EJÉR

°

«* -. " 'i

(71 %o oes -

:

Ci ^ o— es

13

DOS

co ,2

O r3 o* -

REEMPLAZÍ

v.tssr

tOOCO PS

— 1

N i

10 oo en i

C0 N

e

^ B

w J

- I

5 W es

'O

21

lO N -fl"

o — es

1

* .CO ,

. f

AL

1

co

—

1

—i O X i

na

*rr |

1

ncA

■S3[ql3313

C0 I ^ O

co co en'

lO CN (

gO

ADIS'

i!

"IV10X

-M« 100 OS

tn — sx

1018

EST

■pepn

C5

ELE

'sdiu.iAn|i.iino"]

o — co 1

^* ooiO — tN

C5

c

CION.

•SVKTV

732711222057

1110G

POBLÍ

•S0NI33A

o o o

£M C0 (MO CN O

«tics

aao v soavdsmo

1

TDHONare

■ ".■.:'.;r'" • "v i

2*1p

i; MIENTOS.

Ciudadela..Ferrei'ias...Mercadal...

Tolal..

o -

a -~n c-

o "5

S .2 j2 o -ií :a í '

«as /

g b «t *

a — i c

a

a í 2i'

c oa '3

cj u

¿I £.2 g .g ~S1 'P =" ~ 2 =

= r,

£ -o

.2 !M

. - a

—-3 S«g ce 5

^ O M ± —

H "*"'«.- 8 ■£ o

2 ' i ? 7 i -

3 "S "** — a xí a g 2 — '£ ^

■= - ¿ X I - -i

99 3

.2 5b

= .a

:I« u

so js a.

— —

O

5

ta

3 03

S« 3—_a

s

* P ya o o

E * =

a ¡» 1.s-§ —

a ce oaS a. :¿

a £ §

^5 ¡

P 5 t5

a.- °

a

o: e

¡ -a - - o

— CÍC

- TÍ

o í z

o a aa

' - £1-

c co

e ,

1 S

=5

2S

- Í3 -

H £ ■«

- o —í- « w

£ o 5— ~

2"!

o

CJ

■a os